(set-info :smt-lib-version 2.6)
(set-info :category "crafted")
(set-logic QF_FFA)
(define-sort FF0 () (_ FiniteField 52435875175126190479447740508185965837690552500527637822603658699938581184513))
(declare-fun is_zero_n6_alt () FF0)
(declare-fun mul_n76_alt () FF0)
(declare-fun mul_n47_alt () FF0)
(declare-fun is_zero_n56_alt () FF0)
(declare-fun mul_n59_alt () FF0)
(declare-fun is_zero_n74_alt () FF0)
(declare-fun mul_n77_alt () FF0)
(declare-fun mul_n25_alt () FF0)
(declare-fun is_zero_n31_alt () FF0)
(declare-fun mul_n66_alt () FF0)
(declare-fun is_zero_n37_alt () FF0)
(declare-fun mul_n75_alt () FF0)
(declare-fun mul_n78_alt () FF0)
(declare-fun mul_n46_alt () FF0)
(declare-fun mul_n41_alt () FF0)
(declare-fun mul_n23_alt () FF0)
(declare-fun mul_n64_alt () FF0)
(declare-fun mul_n70_alt () FF0)
(declare-fun mul_n67_alt () FF0)
(declare-fun return_n2_alt () FF0)
(declare-fun is_zero_inv_n79_alt () FF0)
(declare-fun mul_n35_alt () FF0)
(declare-fun is_zero_n34_alt () FF0)
(declare-fun mul_n60_alt () FF0)
(declare-fun mul_n57_alt () FF0)
(declare-fun is_zero_n72_alt () FF0)
(declare-fun is_zero_n44_alt () FF0)
(declare-fun mul_n17_alt () FF0)
(declare-fun mul_n49_alt () FF0)
(declare-fun mul_n29_alt () FF0)
(declare-fun mul_n45_alt () FF0)
(declare-fun mul_n39_alt () FF0)
(declare-fun mul_n26_alt () FF0)
(declare-fun mul_n61_alt () FF0)
(declare-fun is_zero_inv_n73_alt () FF0)
(declare-fun mul_n24_alt () FF0)
(declare-fun mul_n20_alt () FF0)
(declare-fun mul_n48_alt () FF0)
(declare-fun mul_n16_alt () FF0)
(declare-fun is_zero_n19_alt () FF0)
(declare-fun is_zero_n51_alt () FF0)
(declare-fun is_zero_inv_n71_alt () FF0)
(declare-fun a_n4_alt () FF0)
(declare-fun mul_n13_alt () FF0)
(declare-fun is_zero_n69_alt () FF0)
(declare-fun mul_n11_alt () FF0)
(declare-fun is_zero_n9_alt () FF0)
(declare-fun mul_n52_alt () FF0)
(declare-fun is_zero_inv_n68_alt () FF0)
(declare-fun mul_n65_alt () FF0)
(declare-fun is_zero_n63_alt () FF0)
(declare-fun is_zero_inv_n62_alt () FF0)
(declare-fun mul_n58_alt () FF0)
(declare-fun mul_n42_alt () FF0)
(declare-fun c_n1_alt () FF0)
(declare-fun mul_n54_alt () FF0)
(declare-fun mul_n32_alt () FF0)
(declare-fun is_zero_inv_n55_alt () FF0)
(declare-fun mul_n40_alt () FF0)
(declare-fun mul_n53_alt () FF0)
(declare-fun is_zero_inv_n50_alt () FF0)
(declare-fun mul_n15_alt () FF0)
(declare-fun is_zero_inv_n43_alt () FF0)
(declare-fun mul_n28_alt () FF0)
(declare-fun mul_n10_alt () FF0)
(declare-fun mul_n21_alt () FF0)
(declare-fun mul_n14_alt () FF0)
(declare-fun is_zero_inv_n36_alt () FF0)
(declare-fun is_zero_inv_n33_alt () FF0)
(declare-fun is_zero_inv_n30_alt () FF0)
(declare-fun mul_n22_alt () FF0)
(declare-fun is_zero_inv_n18_alt () FF0)
(declare-fun b_n3_alt () FF0)
(declare-fun d_n0_alt () FF0)
(declare-fun is_zero_inv_n8_alt () FF0)
(declare-fun is_zero_inv_n5_alt () FF0)
(declare-fun is_zero_n6 () FF0)
(declare-fun mul_n76 () FF0)
(declare-fun mul_n47 () FF0)
(declare-fun is_zero_n56 () FF0)
(declare-fun mul_n59 () FF0)
(declare-fun is_zero_n74 () FF0)
(declare-fun mul_n77 () FF0)
(declare-fun mul_n25 () FF0)
(declare-fun is_zero_n31 () FF0)
(declare-fun mul_n66 () FF0)
(declare-fun is_zero_n37 () FF0)
(declare-fun mul_n75 () FF0)
(declare-fun mul_n78 () FF0)
(declare-fun mul_n46 () FF0)
(declare-fun mul_n41 () FF0)
(declare-fun mul_n23 () FF0)
(declare-fun mul_n64 () FF0)
(declare-fun mul_n70 () FF0)
(declare-fun mul_n67 () FF0)
(declare-fun return_n2 () FF0)
(declare-fun is_zero_inv_n79 () FF0)
(declare-fun mul_n35 () FF0)
(declare-fun is_zero_n34 () FF0)
(declare-fun mul_n60 () FF0)
(declare-fun mul_n57 () FF0)
(declare-fun is_zero_n72 () FF0)
(declare-fun is_zero_n44 () FF0)
(declare-fun mul_n17 () FF0)
(declare-fun mul_n49 () FF0)
(declare-fun mul_n29 () FF0)
(declare-fun mul_n45 () FF0)
(declare-fun mul_n39 () FF0)
(declare-fun mul_n26 () FF0)
(declare-fun mul_n61 () FF0)
(declare-fun is_zero_inv_n73 () FF0)
(declare-fun mul_n24 () FF0)
(declare-fun mul_n20 () FF0)
(declare-fun mul_n48 () FF0)
(declare-fun mul_n16 () FF0)
(declare-fun is_zero_n19 () FF0)
(declare-fun is_zero_n51 () FF0)
(declare-fun is_zero_inv_n71 () FF0)
(declare-fun a_n4 () FF0)
(declare-fun mul_n13 () FF0)
(declare-fun is_zero_n69 () FF0)
(declare-fun mul_n11 () FF0)
(declare-fun is_zero_n9 () FF0)
(declare-fun mul_n52 () FF0)
(declare-fun is_zero_inv_n68 () FF0)
(declare-fun mul_n65 () FF0)
(declare-fun is_zero_n63 () FF0)
(declare-fun is_zero_inv_n62 () FF0)
(declare-fun mul_n58 () FF0)
(declare-fun mul_n42 () FF0)
(declare-fun c_n1 () FF0)
(declare-fun mul_n54 () FF0)
(declare-fun mul_n32 () FF0)
(declare-fun is_zero_inv_n55 () FF0)
(declare-fun mul_n40 () FF0)
(declare-fun mul_n53 () FF0)
(declare-fun is_zero_inv_n50 () FF0)
(declare-fun mul_n15 () FF0)
(declare-fun is_zero_inv_n43 () FF0)
(declare-fun mul_n28 () FF0)
(declare-fun mul_n10 () FF0)
(declare-fun mul_n21 () FF0)
(declare-fun mul_n14 () FF0)
(declare-fun is_zero_inv_n36 () FF0)
(declare-fun is_zero_inv_n33 () FF0)
(declare-fun is_zero_inv_n30 () FF0)
(declare-fun mul_n22 () FF0)
(declare-fun is_zero_inv_n18 () FF0)
(declare-fun b_n3 () FF0)
(declare-fun d_n0 () FF0)
(declare-fun is_zero_inv_n8 () FF0)
(declare-fun is_zero_inv_n5 () FF0)
(assert 
  (let ((let0 (as ff0 FF0)))
  (let ((let1 (as ff7 FF0)))
  (let ((let2 is_zero_n6_alt))
  (let ((let3 (as ff52435875175126190479447740508185965837690552500527637822603658699938581184512 FF0)))
  (let ((let4 mul_n76_alt))
  (let ((let5 (ff.mul let4 let3)))
  (let ((let6 mul_n47_alt))
  (let ((let7 (ff.mul let6 let3)))
  (let ((let8 is_zero_n56_alt))
  (let ((let9 (ff.mul let8 let3)))
  (let ((let10 mul_n59_alt))
  (let ((let11 (ff.mul let10 let3)))
  (let ((let12 is_zero_n74_alt))
  (let ((let13 mul_n77_alt))
  (let ((let14 (ff.mul let13 let3)))
  (let ((let15 mul_n25_alt))
  (let ((let16 (ff.mul let15 let3)))
  (let ((let17 is_zero_n31_alt))
  (let ((let18 (ff.mul let17 let3)))
  (let ((let19 mul_n66_alt))
  (let ((let20 is_zero_n37_alt))
  (let ((let21 mul_n75_alt))
  (let ((let22 (ff.mul let21 let3)))
  (let ((let23 mul_n78_alt))
  (let ((let24 (ff.mul let23 let3)))
  (let ((let25 mul_n46_alt))
  (let ((let26 (ff.mul let25 let3)))
  (let ((let27 mul_n41_alt))
  (let ((let28 (ff.mul let27 let3)))
  (let ((let29 (as ff2 FF0)))
  (let ((let30 mul_n23_alt))
  (let ((let31 (ff.mul let30 let29)))
  (let ((let32 mul_n64_alt))
  (let ((let33 (ff.mul let32 let3)))
  (let ((let34 mul_n70_alt))
  (let ((let35 (ff.mul let34 let3)))
  (let ((let36 mul_n67_alt))
  (let ((let37 (ff.mul let36 let3)))
  (let ((let38 (ff.add let37 let35 let33 let31 let28 let26 let24 let22 let20 let19 let18 let16 let14 let12 let11 let9 let7 let5 let2 let1)))
  (let ((let39 return_n2_alt))
  (let ((let40 (ff.mul let39 let38)))
  (let ((let41 (= let40 let0)))
  (let ((let42 (as ff1 FF0)))
  (let ((let43 (ff.mul let39 let3)))
  (let ((let44 (ff.add let43 let42)))
  (let ((let45 is_zero_inv_n79_alt))
  (let ((let46 (ff.mul let45 let38)))
  (let ((let47 (= let46 let44)))
  (let ((let48 (as ff52435875175126190479447740508185965837690552500527637822603658699938581184511 FF0)))
  (let ((let49 (ff.mul let15 let48)))
  (let ((let50 (ff.add let49 let29)))
  (let ((let51 (ff.mul let50 let20)))
  (let ((let52 (= let51 let23)))
  (let ((let53 mul_n35_alt))
  (let ((let54 is_zero_n34_alt))
  (let ((let55 (ff.mul let54 let3)))
  (let ((let56 (ff.add let37 let55 let30 let26 let53 let42)))
  (let ((let57 mul_n60_alt))
  (let ((let58 (ff.mul let57 let3)))
  (let ((let59 (ff.add let58 let42)))
  (let ((let60 (ff.mul let59 let56)))
  (let ((let61 (= let60 let13)))
  (let ((let62 (ff.add let7 let42)))
  (let ((let63 (ff.mul let2 let29)))
  (let ((let64 (ff.mul let63 let62)))
  (let ((let65 (= let64 let4)))
  (let ((let66 mul_n57_alt))
  (let ((let67 (ff.mul let66 let3)))
  (let ((let68 (ff.add let67 let12)))
  (let ((let69 is_zero_n72_alt))
  (let ((let70 (ff.mul let69 let68)))
  (let ((let71 (= let70 let21)))
  (let ((let72 (as ff3 FF0)))
  (let ((let73 is_zero_n44_alt))
  (let ((let74 mul_n17_alt))
  (let ((let75 mul_n49_alt))
  (let ((let76 (ff.mul let75 let3)))
  (let ((let77 mul_n29_alt))
  (let ((let78 (ff.mul let77 let29)))
  (let ((let79 mul_n45_alt))
  (let ((let80 (ff.mul let79 let29)))
  (let ((let81 mul_n39_alt))
  (let ((let82 (ff.mul let81 let3)))
  (let ((let83 mul_n26_alt))
  (let ((let84 (ff.mul let83 let3)))
  (let ((let85 mul_n61_alt))
  (let ((let86 (ff.mul let85 let29)))
  (let ((let87 (ff.add let86 let84 let82 let80 let78 let76 let74 let69 let20 let54 let7 let73 let67 let72)))
  (let ((let88 (ff.mul let12 let87)))
  (let ((let89 (= let88 let0)))
  (let ((let90 (ff.mul let12 let3)))
  (let ((let91 (ff.add let90 let42)))
  (let ((let92 is_zero_inv_n73_alt))
  (let ((let93 (ff.mul let92 let87)))
  (let ((let94 (= let93 let91)))
  (let ((let95 (as ff6 FF0)))
  (let ((let96 (ff.mul let53 let3)))
  (let ((let97 (ff.mul let20 let3)))
  (let ((let98 mul_n24_alt))
  (let ((let99 mul_n20_alt))
  (let ((let100 (ff.mul let99 let48)))
  (let ((let101 (ff.mul let74 let3)))
  (let ((let102 mul_n48_alt))
  (let ((let103 (ff.mul let102 let3)))
  (let ((let104 mul_n16_alt))
  (let ((let105 (ff.mul let104 let3)))
  (let ((let106 is_zero_n19_alt))
  (let ((let107 is_zero_n51_alt))
  (let ((let108 (ff.mul let107 let3)))
  (let ((let109 (ff.add let108 let77 let106 let105 let103 let101 let100 let98 let97 let54 let96 let95)))
  (let ((let110 (ff.mul let69 let109)))
  (let ((let111 (= let110 let0)))
  (let ((let112 (ff.mul let69 let3)))
  (let ((let113 (ff.add let112 let42)))
  (let ((let114 is_zero_inv_n71_alt))
  (let ((let115 (ff.mul let114 let109)))
  (let ((let116 (= let115 let113)))
  (let ((let117 a_n4_alt))
  (let ((let118 (ff.mul let117 let3)))
  (let ((let119 mul_n13_alt))
  (let ((let120 (ff.add let11 let119 let118 let30 let2 let18)))
  (let ((let121 is_zero_n69_alt))
  (let ((let122 (ff.mul let121 let3)))
  (let ((let123 (ff.add let122 let42)))
  (let ((let124 (ff.mul let123 let120)))
  (let ((let125 (= let124 let34)))
  (let ((let126 mul_n11_alt))
  (let ((let127 is_zero_n9_alt))
  (let ((let128 (ff.mul let127 let3)))
  (let ((let129 mul_n52_alt))
  (let ((let130 (ff.mul let30 let3)))
  (let ((let131 (ff.add let36 let107 let130 let129 let128 let25 let126 let42)))
  (let ((let132 (ff.mul let121 let131)))
  (let ((let133 (= let132 let0)))
  (let ((let134 is_zero_inv_n68_alt))
  (let ((let135 (ff.mul let134 let131)))
  (let ((let136 (= let135 let123)))
  (let ((let137 (ff.mul let25 let48)))
  (let ((let138 (ff.add let137 let29)))
  (let ((let139 (ff.mul let138 let30)))
  (let ((let140 (= let139 let36)))
  (let ((let141 (ff.mul let129 let3)))
  (let ((let142 (ff.add let141 let108 let42)))
  (let ((let143 mul_n65_alt))
  (let ((let144 (ff.mul let143 let3)))
  (let ((let145 (ff.add let144 let42)))
  (let ((let146 (ff.mul let145 let142)))
  (let ((let147 (= let146 let19)))
  (let ((let148 (ff.mul let2 let99)))
  (let ((let149 (= let148 let143)))
  (let ((let150 is_zero_n63_alt))
  (let ((let151 (ff.mul let150 let3)))
  (let ((let152 (ff.add let151 let42)))
  (let ((let153 (ff.mul let152 let59)))
  (let ((let154 (= let153 let32)))
  (let ((let155 (ff.mul let99 let29)))
  (let ((let156 (ff.add let102 let85 let79 let77 let155 let104 let54 let73 let16 let107 let48)))
  (let ((let157 (ff.mul let150 let156)))
  (let ((let158 (= let157 let0)))
  (let ((let159 is_zero_inv_n62_alt))
  (let ((let160 (ff.mul let159 let156)))
  (let ((let161 (= let160 let152)))
  (let ((let162 (ff.mul let77 let3)))
  (let ((let163 (ff.add let162 let42)))
  (let ((let164 (as ff4 FF0)))
  (let ((let165 (ff.mul let54 let48)))
  (let ((let166 (ff.mul let79 let48)))
  (let ((let167 (ff.mul let73 let48)))
  (let ((let168 (ff.add let167 let166 let165 let164)))
  (let ((let169 (ff.mul let168 let163)))
  (let ((let170 (= let169 let85)))
  (let ((let171 mul_n58_alt))
  (let ((let172 (ff.mul let171 let3)))
  (let ((let173 (ff.add let66 let172)))
  (let ((let174 (ff.add let18 let11 let30 let42)))
  (let ((let175 (ff.mul let174 let173)))
  (let ((let176 (= let175 let57)))
  (let ((let177 (ff.add let18 let42)))
  (let ((let178 (ff.mul let31 let177)))
  (let ((let179 (= let178 let10)))
  (let ((let180 (ff.add let102 let155 let66 let48)))
  (let ((let181 (ff.mul let20 let180)))
  (let ((let182 (= let181 let171)))
  (let ((let183 mul_n42_alt))
  (let ((let184 c_n1_alt))
  (let ((let185 (ff.add let184 let183)))
  (let ((let186 (ff.mul let185 let142)))
  (let ((let187 (= let186 let66)))
  (let ((let188 (ff.add let9 let42)))
  (let ((let189 mul_n54_alt))
  (let ((let190 (ff.mul let189 let3)))
  (let ((let191 mul_n32_alt))
  (let ((let192 (ff.mul let191 let3)))
  (let ((let193 (ff.add let192 let30 let190 let72)))
  (let ((let194 is_zero_inv_n55_alt))
  (let ((let195 (ff.mul let194 let193)))
  (let ((let196 (= let195 let188)))
  (let ((let197 mul_n40_alt))
  (let ((let198 (ff.add let197 let16 let42)))
  (let ((let199 mul_n53_alt))
  (let ((let200 (ff.mul let199 let198)))
  (let ((let201 (= let200 let189)))
  (let ((let202 (ff.add let129 let107)))
  (let ((let203 (ff.add let82 let42)))
  (let ((let204 (ff.mul let203 let202)))
  (let ((let205 (= let204 let199)))
  (let ((let206 (ff.add let26 let108 let42)))
  (let ((let207 (ff.add let55 let42)))
  (let ((let208 (ff.mul let207 let206)))
  (let ((let209 (= let208 let129)))
  (let ((let210 (ff.mul let2 let3)))
  (let ((let211 (ff.mul let73 let72)))
  (let ((let212 (ff.mul let6 let29)))
  (let ((let213 (ff.mul let184 let3)))
  (let ((let214 (ff.mul let183 let3)))
  (let ((let215 (ff.mul let54 let29)))
  (let ((let216 (ff.add let100 let75 let101 let215 let105 let80 let214 let103 let213 let212 let211 let210 let164)))
  (let ((let217 (ff.mul let107 let216)))
  (let ((let218 (= let217 let0)))
  (let ((let219 (ff.add let108 let42)))
  (let ((let220 is_zero_inv_n50_alt))
  (let ((let221 (ff.mul let220 let216)))
  (let ((let222 (= let221 let219)))
  (let ((let223 (ff.add let73 let79 let54 let3)))
  (let ((let224 (ff.mul let223 let98)))
  (let ((let225 (= let224 let75)))
  (let ((let226 (ff.mul let99 let3)))
  (let ((let227 (ff.add let226 let42)))
  (let ((let228 (ff.add let100 let29)))
  (let ((let229 (ff.mul let228 let227)))
  (let ((let230 (= let229 let102)))
  (let ((let231 (ff.add let54 let96)))
  (let ((let232 (ff.mul let231 let25)))
  (let ((let233 (= let232 let6)))
  (let ((let234 (ff.add let97 let42)))
  (let ((let235 (ff.add let84 let42)))
  (let ((let236 (ff.mul let235 let234)))
  (let ((let237 (= let236 let25)))
  (let ((let238 (ff.add let167 let29)))
  (let ((let239 (ff.mul let238 let207)))
  (let ((let240 (= let239 let79)))
  (let ((let241 mul_n15_alt))
  (let ((let242 (ff.mul let241 let3)))
  (let ((let243 (ff.mul let117 let48)))
  (let ((let244 (ff.mul let119 let29)))
  (let ((let245 (ff.add let191 let162 let183 let130 let184 let244 let243 let242 let16 let95)))
  (let ((let246 (ff.mul let73 let245)))
  (let ((let247 (= let246 let0)))
  (let ((let248 (ff.mul let73 let3)))
  (let ((let249 (ff.add let248 let42)))
  (let ((let250 is_zero_inv_n43_alt))
  (let ((let251 (ff.mul let250 let245)))
  (let ((let252 (= let251 let249)))
  (let ((let253 mul_n28_alt))
  (let ((let254 (ff.add let119 let253 let118 let2 let213)))
  (let ((let255 (ff.mul let98 let3)))
  (let ((let256 (ff.add let255 let42)))
  (let ((let257 (ff.mul let256 let254)))
  (let ((let258 (= let257 let183)))
  (let ((let259 mul_n10_alt))
  (let ((let260 (ff.mul let259 let3)))
  (let ((let261 (ff.add let260 let42)))
  (let ((let262 (ff.mul let198 let261)))
  (let ((let263 (= let262 let27)))
  (let ((let264 (ff.add let15 let82)))
  (let ((let265 mul_n21_alt))
  (let ((let266 (ff.add let265 let99 let210)))
  (let ((let267 (ff.mul let266 let264)))
  (let ((let268 (= let267 let197)))
  (let ((let269 (ff.mul let234 let17)))
  (let ((let270 (= let269 let81)))
  (let ((let271 mul_n14_alt))
  (let ((let272 (ff.mul let271 let3)))
  (let ((let273 (ff.mul let119 let3)))
  (let ((let274 (ff.add let273 let83 let130 let117 let272 let54 let96 let29)))
  (let ((let275 (ff.mul let20 let274)))
  (let ((let276 (= let275 let0)))
  (let ((let277 is_zero_inv_n36_alt))
  (let ((let278 (ff.mul let277 let274)))
  (let ((let279 (= let278 let234)))
  (let ((let280 (ff.add let54 let210)))
  (let ((let281 (ff.add let210 let42)))
  (let ((let282 (ff.mul let281 let280)))
  (let ((let283 (= let282 let53)))
  (let ((let284 (ff.add let191 let119 let84 let99 let118 let265 let253 let42)))
  (let ((let285 (ff.mul let54 let284)))
  (let ((let286 (= let285 let0)))
  (let ((let287 is_zero_inv_n33_alt))
  (let ((let288 (ff.mul let287 let284)))
  (let ((let289 (= let288 let207)))
  (let ((let290 (ff.add let119 let253 let118 let2)))
  (let ((let291 (ff.mul let2 let290)))
  (let ((let292 (= let291 let191)))
  (let ((let293 (ff.mul let106 let3)))
  (let ((let294 (ff.mul let126 let29)))
  (let ((let295 (ff.add let294 let162 let84 let293 let72)))
  (let ((let296 (ff.mul let17 let295)))
  (let ((let297 (= let296 let0)))
  (let ((let298 is_zero_inv_n30_alt))
  (let ((let299 (ff.mul let298 let295)))
  (let ((let300 (= let299 let177)))
  (let ((let301 (ff.mul let290 let83)))
  (let ((let302 (= let301 let77)))
  (let ((let303 (ff.mul let261 let271)))
  (let ((let304 (= let303 let253)))
  (let ((let305 (ff.mul let261 let259)))
  (let ((let306 (= let305 let83)))
  (let ((let307 (ff.mul let256 let30)))
  (let ((let308 (= let307 let15)))
  (let ((let309 (ff.add let101 let42)))
  (let ((let310 (ff.mul let184 let309)))
  (let ((let311 (= let310 let98)))
  (let ((let312 mul_n22_alt))
  (let ((let313 (ff.mul let312 let266)))
  (let ((let314 (= let313 let30)))
  (let ((let315 (ff.add let128 let42)))
  (let ((let316 (ff.mul let315 let281)))
  (let ((let317 (= let316 let312)))
  (let ((let318 (ff.mul let228 let2)))
  (let ((let319 (= let318 let265)))
  (let ((let320 (ff.mul let315 let106)))
  (let ((let321 (= let320 let99)))
  (let ((let322 (ff.mul let271 let29)))
  (let ((let323 (ff.add let244 let260 let243 let74 let322 let242 let2 let72)))
  (let ((let324 (ff.mul let106 let323)))
  (let ((let325 (= let324 let0)))
  (let ((let326 (ff.add let293 let42)))
  (let ((let327 is_zero_inv_n18_alt))
  (let ((let328 (ff.mul let327 let323)))
  (let ((let329 (= let328 let326)))
  (let ((let330 (ff.mul let104 let184)))
  (let ((let331 (= let330 let74)))
  (let ((let332 (ff.add let242 let42)))
  (let ((let333 (ff.mul let332 let332)))
  (let ((let334 (= let333 let104)))
  (let ((let335 b_n3_alt))
  (let ((let336 (ff.mul let335 let3)))
  (let ((let337 (ff.add let336 let42)))
  (let ((let338 (ff.mul let126 let337)))
  (let ((let339 (= let338 let241)))
  (let ((let340 d_n0_alt))
  (let ((let341 (ff.add let340 let273 let117 let210)))
  (let ((let342 (ff.mul let315 let341)))
  (let ((let343 (= let342 let271)))
  (let ((let344 (ff.mul let117 let29)))
  (let ((let345 (ff.mul let344 let281)))
  (let ((let346 (= let345 let119)))
  (let ((let347 (ff.mul let340 let281)))
  (let ((let348 (= let347 let126)))
  (let ((let349 (ff.mul let2 let127)))
  (let ((let350 (= let349 let259)))
  (let ((let351 (ff.mul let335 let29)))
  (let ((let352 (ff.mul let2 let48)))
  (let ((let353 (ff.add let117 let184 let352 let351 let29)))
  (let ((let354 (ff.mul let127 let353)))
  (let ((let355 (= let354 let0)))
  (let ((let356 is_zero_inv_n8_alt))
  (let ((let357 (ff.mul let356 let353)))
  (let ((let358 (= let357 let315)))
  (let ((let359 (ff.mul let335 let72)))
  (let ((let360 (ff.mul let117 let164)))
  (let ((let361 (ff.mul let340 let164)))
  (let ((let362 (ff.add let361 let360 let184 let359)))
  (let ((let363 (ff.mul let2 let362)))
  (let ((let364 (= let363 let0)))
  (let ((let365 is_zero_inv_n5_alt))
  (let ((let366 (ff.mul let365 let362)))
  (let ((let367 (= let366 let281)))
  (let ((let368 (and let367 let364 let358 let355 let350 let348 let346 let343 let339 let334 let331 let329 let325 let321 let319 let317 let314 let311 let308 let306 let304 let302 let300 let297 let292 let289 let286 let283 let279 let276 let270 let268 let263 let258 let252 let247 let240 let237 let233 let230 let225 let222 let218 let209 let205 let201 let196 let187 let182 let179 let176 let170 let161 let158 let154 let149 let147 let140 let136 let133 let125 let116 let111 let94 let89 let71 let65 let61 let52 let47 let41)))
  (let ((let369 is_zero_n6))
  (let ((let370 mul_n76))
  (let ((let371 (ff.mul let370 let3)))
  (let ((let372 mul_n47))
  (let ((let373 (ff.mul let372 let3)))
  (let ((let374 is_zero_n56))
  (let ((let375 (ff.mul let374 let3)))
  (let ((let376 mul_n59))
  (let ((let377 (ff.mul let376 let3)))
  (let ((let378 is_zero_n74))
  (let ((let379 mul_n77))
  (let ((let380 (ff.mul let379 let3)))
  (let ((let381 mul_n25))
  (let ((let382 (ff.mul let381 let3)))
  (let ((let383 is_zero_n31))
  (let ((let384 (ff.mul let383 let3)))
  (let ((let385 mul_n66))
  (let ((let386 is_zero_n37))
  (let ((let387 mul_n75))
  (let ((let388 (ff.mul let387 let3)))
  (let ((let389 mul_n78))
  (let ((let390 (ff.mul let389 let3)))
  (let ((let391 mul_n46))
  (let ((let392 (ff.mul let391 let3)))
  (let ((let393 mul_n41))
  (let ((let394 (ff.mul let393 let3)))
  (let ((let395 mul_n23))
  (let ((let396 (ff.mul let395 let29)))
  (let ((let397 mul_n64))
  (let ((let398 (ff.mul let397 let3)))
  (let ((let399 mul_n70))
  (let ((let400 (ff.mul let399 let3)))
  (let ((let401 mul_n67))
  (let ((let402 (ff.mul let401 let3)))
  (let ((let403 (ff.add let402 let400 let398 let396 let394 let392 let390 let388 let386 let385 let384 let382 let380 let378 let377 let375 let373 let371 let369 let1)))
  (let ((let404 return_n2))
  (let ((let405 (ff.mul let404 let403)))
  (let ((let406 (= let405 let0)))
  (let ((let407 (ff.mul let404 let3)))
  (let ((let408 (ff.add let407 let42)))
  (let ((let409 is_zero_inv_n79))
  (let ((let410 (ff.mul let409 let403)))
  (let ((let411 (= let410 let408)))
  (let ((let412 (ff.mul let381 let48)))
  (let ((let413 (ff.add let412 let29)))
  (let ((let414 (ff.mul let413 let386)))
  (let ((let415 (= let414 let389)))
  (let ((let416 mul_n35))
  (let ((let417 is_zero_n34))
  (let ((let418 (ff.mul let417 let3)))
  (let ((let419 (ff.add let402 let418 let395 let392 let416 let42)))
  (let ((let420 mul_n60))
  (let ((let421 (ff.mul let420 let3)))
  (let ((let422 (ff.add let421 let42)))
  (let ((let423 (ff.mul let422 let419)))
  (let ((let424 (= let423 let379)))
  (let ((let425 (ff.add let373 let42)))
  (let ((let426 (ff.mul let369 let29)))
  (let ((let427 (ff.mul let426 let425)))
  (let ((let428 (= let427 let370)))
  (let ((let429 mul_n57))
  (let ((let430 (ff.mul let429 let3)))
  (let ((let431 (ff.add let430 let378)))
  (let ((let432 is_zero_n72))
  (let ((let433 (ff.mul let432 let431)))
  (let ((let434 (= let433 let387)))
  (let ((let435 is_zero_n44))
  (let ((let436 mul_n17))
  (let ((let437 mul_n49))
  (let ((let438 (ff.mul let437 let3)))
  (let ((let439 mul_n29))
  (let ((let440 (ff.mul let439 let29)))
  (let ((let441 mul_n45))
  (let ((let442 (ff.mul let441 let29)))
  (let ((let443 mul_n39))
  (let ((let444 (ff.mul let443 let3)))
  (let ((let445 mul_n26))
  (let ((let446 (ff.mul let445 let3)))
  (let ((let447 mul_n61))
  (let ((let448 (ff.mul let447 let29)))
  (let ((let449 (ff.add let448 let446 let444 let442 let440 let438 let436 let432 let386 let417 let373 let435 let430 let72)))
  (let ((let450 (ff.mul let378 let449)))
  (let ((let451 (= let450 let0)))
  (let ((let452 (ff.mul let378 let3)))
  (let ((let453 (ff.add let452 let42)))
  (let ((let454 is_zero_inv_n73))
  (let ((let455 (ff.mul let454 let449)))
  (let ((let456 (= let455 let453)))
  (let ((let457 (ff.mul let416 let3)))
  (let ((let458 (ff.mul let386 let3)))
  (let ((let459 mul_n24))
  (let ((let460 mul_n20))
  (let ((let461 (ff.mul let460 let48)))
  (let ((let462 (ff.mul let436 let3)))
  (let ((let463 mul_n48))
  (let ((let464 (ff.mul let463 let3)))
  (let ((let465 mul_n16))
  (let ((let466 (ff.mul let465 let3)))
  (let ((let467 is_zero_n19))
  (let ((let468 is_zero_n51))
  (let ((let469 (ff.mul let468 let3)))
  (let ((let470 (ff.add let469 let439 let467 let466 let464 let462 let461 let459 let458 let417 let457 let95)))
  (let ((let471 (ff.mul let432 let470)))
  (let ((let472 (= let471 let0)))
  (let ((let473 (ff.mul let432 let3)))
  (let ((let474 (ff.add let473 let42)))
  (let ((let475 is_zero_inv_n71))
  (let ((let476 (ff.mul let475 let470)))
  (let ((let477 (= let476 let474)))
  (let ((let478 a_n4))
  (let ((let479 (ff.mul let478 let3)))
  (let ((let480 mul_n13))
  (let ((let481 (ff.add let377 let480 let479 let395 let369 let384)))
  (let ((let482 is_zero_n69))
  (let ((let483 (ff.mul let482 let3)))
  (let ((let484 (ff.add let483 let42)))
  (let ((let485 (ff.mul let484 let481)))
  (let ((let486 (= let485 let399)))
  (let ((let487 mul_n11))
  (let ((let488 is_zero_n9))
  (let ((let489 (ff.mul let488 let3)))
  (let ((let490 mul_n52))
  (let ((let491 (ff.mul let395 let3)))
  (let ((let492 (ff.add let401 let468 let491 let490 let489 let391 let487 let42)))
  (let ((let493 (ff.mul let482 let492)))
  (let ((let494 (= let493 let0)))
  (let ((let495 is_zero_inv_n68))
  (let ((let496 (ff.mul let495 let492)))
  (let ((let497 (= let496 let484)))
  (let ((let498 (ff.mul let391 let48)))
  (let ((let499 (ff.add let498 let29)))
  (let ((let500 (ff.mul let499 let395)))
  (let ((let501 (= let500 let401)))
  (let ((let502 (ff.mul let490 let3)))
  (let ((let503 (ff.add let502 let469 let42)))
  (let ((let504 mul_n65))
  (let ((let505 (ff.mul let504 let3)))
  (let ((let506 (ff.add let505 let42)))
  (let ((let507 (ff.mul let506 let503)))
  (let ((let508 (= let507 let385)))
  (let ((let509 (ff.mul let369 let460)))
  (let ((let510 (= let509 let504)))
  (let ((let511 is_zero_n63))
  (let ((let512 (ff.mul let511 let3)))
  (let ((let513 (ff.add let512 let42)))
  (let ((let514 (ff.mul let513 let422)))
  (let ((let515 (= let514 let397)))
  (let ((let516 (ff.mul let460 let29)))
  (let ((let517 (ff.add let463 let447 let441 let439 let516 let465 let417 let435 let382 let468 let48)))
  (let ((let518 (ff.mul let511 let517)))
  (let ((let519 (= let518 let0)))
  (let ((let520 is_zero_inv_n62))
  (let ((let521 (ff.mul let520 let517)))
  (let ((let522 (= let521 let513)))
  (let ((let523 (ff.mul let439 let3)))
  (let ((let524 (ff.add let523 let42)))
  (let ((let525 (ff.mul let417 let48)))
  (let ((let526 (ff.mul let441 let48)))
  (let ((let527 (ff.mul let435 let48)))
  (let ((let528 (ff.add let527 let526 let525 let164)))
  (let ((let529 (ff.mul let528 let524)))
  (let ((let530 (= let529 let447)))
  (let ((let531 mul_n58))
  (let ((let532 (ff.mul let531 let3)))
  (let ((let533 (ff.add let429 let532)))
  (let ((let534 (ff.add let384 let377 let395 let42)))
  (let ((let535 (ff.mul let534 let533)))
  (let ((let536 (= let535 let420)))
  (let ((let537 (ff.add let384 let42)))
  (let ((let538 (ff.mul let396 let537)))
  (let ((let539 (= let538 let376)))
  (let ((let540 (ff.add let463 let516 let429 let48)))
  (let ((let541 (ff.mul let386 let540)))
  (let ((let542 (= let541 let531)))
  (let ((let543 mul_n42))
  (let ((let544 c_n1))
  (let ((let545 (ff.add let544 let543)))
  (let ((let546 (ff.mul let545 let503)))
  (let ((let547 (= let546 let429)))
  (let ((let548 (ff.add let375 let42)))
  (let ((let549 mul_n54))
  (let ((let550 (ff.mul let549 let3)))
  (let ((let551 mul_n32))
  (let ((let552 (ff.mul let551 let3)))
  (let ((let553 (ff.add let552 let395 let550 let72)))
  (let ((let554 is_zero_inv_n55))
  (let ((let555 (ff.mul let554 let553)))
  (let ((let556 (= let555 let548)))
  (let ((let557 mul_n40))
  (let ((let558 (ff.add let557 let382 let42)))
  (let ((let559 mul_n53))
  (let ((let560 (ff.mul let559 let558)))
  (let ((let561 (= let560 let549)))
  (let ((let562 (ff.add let490 let468)))
  (let ((let563 (ff.add let444 let42)))
  (let ((let564 (ff.mul let563 let562)))
  (let ((let565 (= let564 let559)))
  (let ((let566 (ff.add let392 let469 let42)))
  (let ((let567 (ff.add let418 let42)))
  (let ((let568 (ff.mul let567 let566)))
  (let ((let569 (= let568 let490)))
  (let ((let570 (ff.mul let369 let3)))
  (let ((let571 (ff.mul let435 let72)))
  (let ((let572 (ff.mul let372 let29)))
  (let ((let573 (ff.mul let544 let3)))
  (let ((let574 (ff.mul let543 let3)))
  (let ((let575 (ff.mul let417 let29)))
  (let ((let576 (ff.add let461 let437 let462 let575 let466 let442 let574 let464 let573 let572 let571 let570 let164)))
  (let ((let577 (ff.mul let468 let576)))
  (let ((let578 (= let577 let0)))
  (let ((let579 (ff.add let469 let42)))
  (let ((let580 is_zero_inv_n50))
  (let ((let581 (ff.mul let580 let576)))
  (let ((let582 (= let581 let579)))
  (let ((let583 (ff.add let435 let441 let417 let3)))
  (let ((let584 (ff.mul let583 let459)))
  (let ((let585 (= let584 let437)))
  (let ((let586 (ff.mul let460 let3)))
  (let ((let587 (ff.add let586 let42)))
  (let ((let588 (ff.add let461 let29)))
  (let ((let589 (ff.mul let588 let587)))
  (let ((let590 (= let589 let463)))
  (let ((let591 (ff.add let417 let457)))
  (let ((let592 (ff.mul let591 let391)))
  (let ((let593 (= let592 let372)))
  (let ((let594 (ff.add let458 let42)))
  (let ((let595 (ff.add let446 let42)))
  (let ((let596 (ff.mul let595 let594)))
  (let ((let597 (= let596 let391)))
  (let ((let598 (ff.add let527 let29)))
  (let ((let599 (ff.mul let598 let567)))
  (let ((let600 (= let599 let441)))
  (let ((let601 mul_n15))
  (let ((let602 (ff.mul let601 let3)))
  (let ((let603 (ff.mul let478 let48)))
  (let ((let604 (ff.mul let480 let29)))
  (let ((let605 (ff.add let551 let523 let543 let491 let544 let604 let603 let602 let382 let95)))
  (let ((let606 (ff.mul let435 let605)))
  (let ((let607 (= let606 let0)))
  (let ((let608 (ff.mul let435 let3)))
  (let ((let609 (ff.add let608 let42)))
  (let ((let610 is_zero_inv_n43))
  (let ((let611 (ff.mul let610 let605)))
  (let ((let612 (= let611 let609)))
  (let ((let613 mul_n28))
  (let ((let614 (ff.add let480 let613 let479 let369 let573)))
  (let ((let615 (ff.mul let459 let3)))
  (let ((let616 (ff.add let615 let42)))
  (let ((let617 (ff.mul let616 let614)))
  (let ((let618 (= let617 let543)))
  (let ((let619 mul_n10))
  (let ((let620 (ff.mul let619 let3)))
  (let ((let621 (ff.add let620 let42)))
  (let ((let622 (ff.mul let558 let621)))
  (let ((let623 (= let622 let393)))
  (let ((let624 (ff.add let381 let444)))
  (let ((let625 mul_n21))
  (let ((let626 (ff.add let625 let460 let570)))
  (let ((let627 (ff.mul let626 let624)))
  (let ((let628 (= let627 let557)))
  (let ((let629 (ff.mul let594 let383)))
  (let ((let630 (= let629 let443)))
  (let ((let631 mul_n14))
  (let ((let632 (ff.mul let631 let3)))
  (let ((let633 (ff.mul let480 let3)))
  (let ((let634 (ff.add let633 let445 let491 let478 let632 let417 let457 let29)))
  (let ((let635 (ff.mul let386 let634)))
  (let ((let636 (= let635 let0)))
  (let ((let637 is_zero_inv_n36))
  (let ((let638 (ff.mul let637 let634)))
  (let ((let639 (= let638 let594)))
  (let ((let640 (ff.add let417 let570)))
  (let ((let641 (ff.add let570 let42)))
  (let ((let642 (ff.mul let641 let640)))
  (let ((let643 (= let642 let416)))
  (let ((let644 (ff.add let551 let480 let446 let460 let479 let625 let613 let42)))
  (let ((let645 (ff.mul let417 let644)))
  (let ((let646 (= let645 let0)))
  (let ((let647 is_zero_inv_n33))
  (let ((let648 (ff.mul let647 let644)))
  (let ((let649 (= let648 let567)))
  (let ((let650 (ff.add let480 let613 let479 let369)))
  (let ((let651 (ff.mul let369 let650)))
  (let ((let652 (= let651 let551)))
  (let ((let653 (ff.mul let467 let3)))
  (let ((let654 (ff.mul let487 let29)))
  (let ((let655 (ff.add let654 let523 let446 let653 let72)))
  (let ((let656 (ff.mul let383 let655)))
  (let ((let657 (= let656 let0)))
  (let ((let658 is_zero_inv_n30))
  (let ((let659 (ff.mul let658 let655)))
  (let ((let660 (= let659 let537)))
  (let ((let661 (ff.mul let650 let445)))
  (let ((let662 (= let661 let439)))
  (let ((let663 (ff.mul let621 let631)))
  (let ((let664 (= let663 let613)))
  (let ((let665 (ff.mul let621 let619)))
  (let ((let666 (= let665 let445)))
  (let ((let667 (ff.mul let616 let395)))
  (let ((let668 (= let667 let381)))
  (let ((let669 (ff.add let462 let42)))
  (let ((let670 (ff.mul let544 let669)))
  (let ((let671 (= let670 let459)))
  (let ((let672 mul_n22))
  (let ((let673 (ff.mul let672 let626)))
  (let ((let674 (= let673 let395)))
  (let ((let675 (ff.add let489 let42)))
  (let ((let676 (ff.mul let675 let641)))
  (let ((let677 (= let676 let672)))
  (let ((let678 (ff.mul let588 let369)))
  (let ((let679 (= let678 let625)))
  (let ((let680 (ff.mul let675 let467)))
  (let ((let681 (= let680 let460)))
  (let ((let682 (ff.mul let631 let29)))
  (let ((let683 (ff.add let604 let620 let603 let436 let682 let602 let369 let72)))
  (let ((let684 (ff.mul let467 let683)))
  (let ((let685 (= let684 let0)))
  (let ((let686 (ff.add let653 let42)))
  (let ((let687 is_zero_inv_n18))
  (let ((let688 (ff.mul let687 let683)))
  (let ((let689 (= let688 let686)))
  (let ((let690 (ff.mul let465 let544)))
  (let ((let691 (= let690 let436)))
  (let ((let692 (ff.add let602 let42)))
  (let ((let693 (ff.mul let692 let692)))
  (let ((let694 (= let693 let465)))
  (let ((let695 b_n3))
  (let ((let696 (ff.mul let695 let3)))
  (let ((let697 (ff.add let696 let42)))
  (let ((let698 (ff.mul let487 let697)))
  (let ((let699 (= let698 let601)))
  (let ((let700 d_n0))
  (let ((let701 (ff.add let700 let633 let478 let570)))
  (let ((let702 (ff.mul let675 let701)))
  (let ((let703 (= let702 let631)))
  (let ((let704 (ff.mul let478 let29)))
  (let ((let705 (ff.mul let704 let641)))
  (let ((let706 (= let705 let480)))
  (let ((let707 (ff.mul let700 let641)))
  (let ((let708 (= let707 let487)))
  (let ((let709 (ff.mul let369 let488)))
  (let ((let710 (= let709 let619)))
  (let ((let711 (ff.mul let695 let29)))
  (let ((let712 (ff.mul let369 let48)))
  (let ((let713 (ff.add let478 let544 let712 let711 let29)))
  (let ((let714 (ff.mul let488 let713)))
  (let ((let715 (= let714 let0)))
  (let ((let716 is_zero_inv_n8))
  (let ((let717 (ff.mul let716 let713)))
  (let ((let718 (= let717 let675)))
  (let ((let719 (ff.mul let695 let72)))
  (let ((let720 (ff.mul let478 let164)))
  (let ((let721 (ff.mul let700 let164)))
  (let ((let722 (ff.add let721 let720 let544 let719)))
  (let ((let723 (ff.mul let369 let722)))
  (let ((let724 (= let723 let0)))
  (let ((let725 is_zero_inv_n5))
  (let ((let726 (ff.mul let725 let722)))
  (let ((let727 (= let726 let641)))
  (let ((let728 (and let727 let724 let718 let715 let710 let708 let706 let703 let699 let694 let691 let689 let685 let681 let679 let677 let674 let671 let668 let666 let664 let662 let660 let657 let652 let649 let646 let643 let639 let636 let630 let628 let623 let618 let612 let607 let600 let597 let593 let590 let585 let582 let578 let569 let565 let561 let556 let547 let542 let539 let536 let530 let522 let519 let515 let510 let508 let501 let497 let494 let486 let477 let472 let456 let451 let434 let428 let424 let415 let411 let406)))
  (let ((let729 (= let404 let39)))
  (let ((let730 (not let729)))
  (let ((let731 (= let478 let117)))
  (let ((let732 (= let544 let184)))
  (let ((let733 (= let695 let335)))
  (let ((let734 (= let700 let340)))
  (let ((let735 (and let734 let733 let732 let731)))
  (let ((let736 (and let735 let730 let728 let368)))
  let736
)))))))))))))))))))))))))))))))))))))))))))))))))))))))))))))))))))))))))))))))))))))))))))))))))))))))))))))))))))))))))))))))))))))))))))))))))))))))))))))))))))))))))))))))))))))))))))))))))))))))))))))))))))))))))))))))))))))))))))))))))))))))))))))))))))))))))))))))))))))))))))))))))))))))))))))))))))))))))))))))))))))))))))))))))))))))))))))))))))))))))))))))))))))))))))))))))))))))))))))))))))))))))))))))))))))))))))))))))))))))))))))))))))))))))))))))))))))))))))))))))))))))))))))))))))))))))))))))))))))))))))))))))))))))))))))))))))))))))))))))))))))))))))))))))))))))))))))))))))))))))))))))))))))))))))))))))))))))))))))))))))))))))))))))))))))))))))))))))))))))))))))))))))))))))))))))))))))))))))))))))))))))))))))))))
)
(check-sat)
